proyfinal/src/viki/013/experimentInOfficeAgust.take6.output/1fa1f691-5ede-476b-bb5b-725328230568.als.dat
{'cnf.clauses': '118081',
 'cnf.totvars': '69608',
 'conflict literals': '1771',
 'conflicts': '173',
 'decisions': '4237',
 'memused.mb': '17.03',
 'outcome': 'UNSAT',
 'propagations': '240356',
 'restarts': '2',
 'solver.msecs': 42,
 'task.msecs': 129}
