proyfinal/src/viki/013/experimentInOfficeAgust.take6.output/1fa1f691-5ede-476b-bb5b-725328230568.als.out
Reading from standard input... Use '--help' for help.
============================[ Problem Statistics ]=============================
|                                                                             |
|  Number of variables:         69608                                         |
|  Number of clauses:          118081                                         |
|  Parse time:                   0.02 s                                       |
|                                                                             |
============================[ Search Statistics ]==============================
| Conflicts |          ORIGINAL         |          LEARNT          | Progress |
|           |    Vars  Clauses Literals |    Limit  Clauses Lit/Cl |          |
===============================================================================
|       100 |   56697    82285   203723 |    30171       94     11 | 18.548 % |
===============================================================================
restarts              : 2
conflicts             : 173            (4026 /sec)
decisions             : 4237           (0.00 % random) (98590 /sec)
propagations          : 240356         (5592796 /sec)
conflict literals     : 1771           (24.06 % deleted)
Memory used           : 17.03 MB
CPU time              : 0.042976 s

UNSATISFIABLE
